0 0 0 0
0 1 0 0
0 2 0 0
0 3 1 0
0 4 0 7
0 5 0 7
0 6 0 5
0 7 1 5
0 8 2 2
0 9 0 9
0 10 1 9
0 11 0 15
0 12 0 9
0 13 1 16
0 14 0 11
0 15 0 15
0 16 0 15
0 17 0 25
0 18 2 16
0 19 0 8
0 20 0 13
0 21 0 23
0 22 0 19
0 23 0 25
0 24 2 26
0 25 0 13
0 26 1 28
0 27 0 26
0 28 2 26
0 29 0 34
0 30 0 33
0 31 0 37
